141278	210248
141247	212707
140607	230156
140532	252049
139647	252995
139142	267345
138257	268291
137780	270606
137777	285252
136607	298079
135025	303809
129567	310013
129452	311706
129337	311713
127802	317043
127682	321097
126243	328178
124313	334679
124303	339983
124083	341828
121953	345465
121838	345472
120073	352502
105223	354746
104368	359835
103253	360647
101323	367148
101313	372452
101093	374297
